SCIP Status        : solving was interrupted [time limit reached]
Total Time         :    3600.02
  solving          :    3600.00
  presolving       :       0.37 (included in solving)
  reading          :       0.02
  copying          :       0.85 (106 #copies) (minimal 0.01, maximal 0.01, average 0.01)
Original Problem   :
  Problem name     : chp_shorttermplan1b
  Variables        : 1680 (0 binary, 288 integer, 0 implicit integer, 1392 continuous)
  Constraints      : 3850 initial, 3850 maximal
  Objective        : minimize, 48 non-zeros (abs.min = 1, abs.max = 1)
Presolved Problem  :
  Problem name     : t_chp_shorttermplan1b
  Variables        : 2861 (196 binary, 0 integer, 100 implicit integer, 2565 continuous)
  Constraints      : 2758 initial, 2997 maximal
  Objective        : minimize, 797 non-zeros (abs.min = 0.0076, abs.max = 9.6)
  Nonzeros         : 7925 constraint, 0 clique table
Presolvers         :   ExecTime  SetupTime  Calls  FixedVars   AggrVars   ChgTypes  ChgBounds   AddHoles    DelCons    AddCons   ChgSides   ChgCoefs
  boundshift       :       0.00       0.00      0          0          0          0          0          0          0          0          0          0
  convertinttobin  :       0.00       0.00      0          0          0          0          0          0          0          0          0          0
  domcol           :       0.00       0.00      4          0          0          0          0          0          0          0          0          0
  dualagg          :       0.00       0.00      0          0          0          0          0          0          0          0          0          0
  dualcomp         :       0.00       0.00      4          0          0          0          0          0          0          0          0          0
  dualinfer        :       0.00       0.00      0          0          0          0          0          0          0          0          0          0
  dualsparsify     :       0.00       0.00      2          0          0          0          0          0          0          0          0          0
  gateextraction   :       0.00       0.00      0          0          0          0          0          0          0          0          0          0
  implics          :       0.00       0.00      6          0          0          0          0          0          0          0          0          0
  inttobinary      :       0.00       0.00      0          0          0          0          0          0          0          0          0          0
  qpkktref         :       0.00       0.00      0          0          0          0          0          0          0          0          0          0
  redvub           :       0.00       0.00      0          0          0          0          0          0          0          0          0          0
  sparsify         :       0.00       0.00      1          0          0          0          0          0          0          0          0          0
  stuffing         :       0.00       0.00      0          0          0          0          0          0          0          0          0          0
  trivial          :       0.00       0.00     15        144          0          0          0          0          0          0          0          0
  tworowbnd        :       0.00       0.00      0          0          0          0          0          0          0          0          0          0
  dualfix          :       0.00       0.00     15        119          0          0          0          0          0          0          0          0
  genvbounds       :       0.00       0.00      0          0          0          0          0          0          0          0          0          0
  probing          :       0.02       0.00      3          0         92          0          0          0          0          0          0          0
  pseudoobj        :       0.00       0.00      0          0          0          0          0          0          0          0          0          0
  symmetry         :       0.02       0.00      1          0          0          0          0          0          0          1          0          0
  vbounds          :       0.00       0.00      0          0          0          0          0          0          0          0          0          0
  varbound         :       0.00       0.00     13          0          0          0        102          0          0          0          0          0
  knapsack         :       0.00       0.00      0          0          0          0          0          0          0          0          0          0
  linear           :       0.02       0.00     21          0         96          0         50          0       1093          0         27          6
  orbitope         :       0.00       0.00      1          0          0          0          0          0          0          0          0          0
  logicor          :       0.00       0.00     17          0          0          0          0          0          0          0          0          0
  nonlinear        :       0.30       0.01     25          0          0          0          0          0          0         -1          0         -6
  benders          :       0.00       0.00      0          0          0          0          0          0          0          0          0          0
  components       :       0.00       0.00      1          0          0          0          0          0          0          0          0          0
  root node        :          -          -      -          0          -          -       1306          -          -          -          -          -
Constraints        :     Number  MaxNumber  #Separate #Propagate    #EnfoLP    #EnfoRelax  #EnfoPS    #Check   #ResProp    Cutoffs    DomReds       Cuts    Applied      Conss   Children
  benderslp        :          0          0          0          0      99849          0          0      22269          0          0          0          0          0          0          0
  integral         :          0          0          0          0      99849          0          0      22269          0          0       2017          0          0          9     198514
  varbound         :       1248       1248         95     950380          0          0          0      22263          0          0    1040671          0          0          0          0
  knapsack         :          0+         1          0      49739          0          0          0          0          1          0          0          0          0          0          0
  linear           :        505+       506         95     950442          0          0          0        783      31253       1386     444441          0          0          0          0
  orbitope         :          1          1          0     948815          0          0          0        781        384          0       6601          0          0          0          0
  logicor          :        236+       474         95     319448          0          0          0        781       2863        649     319563          0          0          0          0
  nonlinear        :        768        768     320701     948407          0          0          0        781          0          0    6151518    2024008    1482482          0          0
  benders          :          0          0          0          0          0          0          0        259          0          0          0          0          0          0          0
  countsols        :          0          0          0          0          0          0          0        259          0          0          0          0          0          0          0
  components       :          0          0          0          0          0          0          0          0          0          0          0          0          0          0          0
Constraint Timings :  TotalTime  SetupTime   Separate  Propagate     EnfoLP     EnfoPS     EnfoRelax   Check    ResProp    SB-Prop
  benderslp        :       0.05       0.00       0.00       0.00       0.05       0.00       0.00       0.01       0.00       0.00
  integral         :      32.01       0.00       0.00       0.00      32.00       0.00       0.00       0.01       0.00       0.00
  varbound         :       4.67       0.00       0.02       4.43       0.00       0.00       0.00       0.17       0.00       0.05
  knapsack         :       0.01       0.00       0.00       0.01       0.00       0.00       0.00       0.00       0.00       0.00
  linear           :       2.29       0.00       0.05       2.15       0.00       0.00       0.00       0.05       0.01       0.03
  orbitope         :       6.71       0.00       0.00       6.70       0.00       0.00       0.00       0.00       0.00       0.00
  logicor          :       2.11       0.00       0.00       2.08       0.00       0.00       0.00       0.02       0.00       0.01
  nonlinear        :     311.86       0.01     281.48      29.38       0.00       0.00       0.00       0.63       0.00       0.37
  benders          :       0.00       0.00       0.00       0.00       0.00       0.00       0.00       0.00       0.00       0.00
  countsols        :       0.00       0.00       0.00       0.00       0.00       0.00       0.00       0.00       0.00       0.00
  components       :       0.09       0.00       0.00       0.09       0.00       0.00       0.00       0.00       0.00       0.00
Propagators        : #Propagate   #ResProp    Cutoffs    DomReds
  dualfix          :         72          0          0          0
  genvbounds       :      41253          0          0      10630
  nlobbt           :          0          0          0          0
  obbt             :         72          0          0          0
  probing          :          0          0          0          0
  pseudoobj        :     644238          0          0          0
  redcost          :     689593          0          0     815488
  rootredcost      :         20          0          0        133
  symmetry         :          0          0          0          0
  vbounds          :     515644          0          0          0
Propagator Timings :  TotalTime  SetupTime   Presolve  Propagate    ResProp    SB-Prop
  dualfix          :       0.01       0.00       0.00       0.01       0.00       0.00
  genvbounds       :       0.76       0.00       0.00       0.76       0.00       0.00
  nlobbt           :       0.00       0.00       0.00       0.00       0.00       0.00
  obbt             :       3.74       0.00       0.00       3.74       0.00       0.00
  probing          :       0.02       0.00       0.02       0.00       0.00       0.00
  pseudoobj        :       5.70       0.00       0.00       5.69       0.00       0.00
  redcost          :      17.22       0.00       0.00      17.22       0.00       0.00
  rootredcost      :       0.22       0.00       0.00       0.22       0.00       0.00
  symmetry         :       0.14       0.00       0.02       0.11       0.00       0.00
  vbounds          :       0.43       0.00       0.00       0.42       0.00       0.01
Orbital fixing     :
  vars fixed to 0  :          0
  vars fixed to 1  :          0
Conflict Analysis  :       Time      Calls    Success    DomReds  Conflicts   Literals    Reconvs ReconvLits   Dualrays   Nonzeros   LP Iters   (pool size: [10000,10000])
  propagation      :       0.03       1961       1959          -       2642        9.7        251        7.8          -          -          -
  infeasible LP    :       0.00          8          8          -          7       10.4          1        8.0          8       31.1          0
  bound exceed. LP :       7.76      11060          0          -          0        0.0          0        0.0          0        0.0          0
  strong branching :       0.00          0          0          -          0        0.0          0        0.0          -          -          0
  pseudo solution  :       0.00          0          0          -          0        0.0          0        0.0          -          -          -
  applied globally :       0.00          -          -          0       2741        9.4          -          -          8          -          -
  applied locally  :          -          -          -          0          0        0.0          -          -          0          -          -
Separators         :   ExecTime  SetupTime      Calls  RootCalls    Cutoffs    DomReds  FoundCuts ViaPoolAdd  DirectAdd    Applied ViaPoolApp  DirectApp      Conss
  cut pool         :       3.96          -      39168        138          -          -      56830     163063          -          -          -          -          -    (maximal pool size:       2770)
  aggregation      :      19.34       0.00       9204         95          0          0       4632      19799          0       9242       9242          0          0
  > cmir           :          -          -          -          -          -          -          -      14944          0       5909       5909          0          -
  > flowcover      :          -          -          -          -          -          -          -       4855          0       3333       3333          0          -
  > knapsackcover  :          -          -          -          -          -          -          -          0          0          0          0          0          -
  cgmip            :       0.00       0.00          0          0          0          0          0          0          0          0          0          0          0
  clique           :       0.00       0.00          1          1          0          0          0          0          0          0          0          0          0
  closecuts        :       0.00       0.00          0          0          0          0          0          0          0          0          0          0          0
  convexproj       :       0.00       0.00          0          0          0          0          0          0          0          0          0          0          0
  disjunctive      :       0.00       0.00          0          0          0          0          0          0          0          0          0          0          0
  eccuts           :       0.00       0.00          0          0          0          0          0          0          0          0          0          0          0
  gauge            :       0.00       0.00          0          0          0          0          0          0          0          0          0          0          0
  gomory           :      67.58       0.00       8608         10          0          0      52058     143095          0      14904      14904          0          0
  > gomorymi       :          -          -          -          -          -          -          -     142917          0      14842      14842          0          -
  > strongcg       :          -          -          -          -          -          -          -        178          0         62         62          0          -
  impliedbounds    :       0.76       0.00       9204         95          0          0          0          0          0          0          0          0          0
  interminor       :       0.00       0.00          0          0          0          0          0          0          0          0          0          0          0
  intobj           :       0.00       0.00          0          0          0          0          0          0          0          0          0          0          0
  mcf              :       0.00       0.00          1          1          0          0          0          0          0          0          0          0          0
  minor            :       0.01       0.00          0          0          0          0          0          0          0          0          0          0          0
  mixing           :       0.96       0.00       9204         95          0          0          0          0          0          0          0          0          0
  oddcycle         :       0.00       0.00          0          0          0          0          0          0          0          0          0          0          0
  rapidlearning    :       0.00       0.00          0          0          0          0          0          0          0          0          0          0          0
  rlt              :       0.01       0.00         10         10          0          0          0          0          0          0          0          0          0
  zerohalf         :       5.82       0.00       8618         20          0          0        138        169          0         82         82          0          0
Cutselectors       :   ExecTime  SetupTime      Calls  RootCalls   Selected     Forced   Filtered  RootSelec   RootForc   RootFilt 
  hybrid           :       1.37       0.00     316396         43    1956671          0     230400        942          0        569
Pricers            :   ExecTime  SetupTime      Calls       Vars
  problem variables:       0.00          -          0          0
Branching Rules    :   ExecTime  SetupTime   BranchLP  BranchExt   BranchPS    Cutoffs    DomReds       Cuts      Conss   Children
  allfullstrong    :       0.00       0.00          0          0          0          0          0          0          0          0
  cloud            :       0.00       0.00          0          0          0          0          0          0          0          0
  distribution     :       0.00       0.00          0          0          0          0          0          0          0          0
  fullstrong       :       0.00       0.00          0          0          0          0          0          0          0          0
  inference        :       0.00       0.00          0          0          0          0          0          0          0          0
  leastinf         :       0.00       0.00          0          0          0          0          0          0          0          0
  lookahead        :       0.00       0.00          0          0          0          0          0          0          0          0
  mostinf          :       0.00       0.00          0          0          0          0          0          0          0          0
  multaggr         :       0.00       0.00          0          0          0          0          0          0          0          0
  nodereopt        :       0.00       0.00          0          0          0          0          0          0          0          0
  pscost           :       0.00       0.00          0          0          0          0          0          0          0          0
  random           :       0.00       0.00          0          0          0          0          0          0          0          0
  relpscost        :      31.87       0.00      99849          0          0          0       2017          0          9     198514
  vanillafullstrong:       0.00       0.00          0          0          0          0          0          0          0          0
Primal Heuristics  :   ExecTime  SetupTime      Calls      Found       Best
  LP solutions     :       0.00          -          -          0          0
  relax solutions  :       0.00          -          -          0          0
  pseudo solutions :       0.00          -          -          0          0
  strong branching :       0.02          -          -          0          0
  actconsdiving    :       0.00       0.00          0          0          0
  adaptivediving   :       1.47       0.00        141          0          0
  alns             :      16.41       0.00         15          1          1
  bound            :       0.00       0.00          0          0          0
  clique           :       0.00       0.00          0          0          0
  coefdiving       :       0.00       0.00          0          0          0
  completesol      :       0.00       0.00          0          0          0
  conflictdiving   :       2.37       0.00        529          0          0
  crossover        :      98.05       0.00         32         32          6
  dins             :       0.00       0.00          0          0          0
  distributiondivin:      18.20       0.00        529          0          0
  dps              :       0.00       0.00          0          0          0
  dualval          :       0.00       0.00          0          0          0
  farkasdiving     :       0.40       0.00          1          0          0
  feaspump         :       0.27       0.00          1          0          0
  fixandinfer      :       0.00       0.00          0          0          0
  fracdiving       :       6.05       0.00        530          0          0
  gins             :       4.82       0.00         11          3          1
  guideddiving     :       5.60       0.00        530          0          0
  indicator        :       0.21       0.00          0          0          0
  indicatordiving  :       0.00       0.00          0          0          0
  intdiving        :       0.00       0.00          0          0          0
  intshifting      :       0.04       0.00         75          0          0
  linesearchdiving :       4.91       0.00        530          0          0
  localbranching   :       0.00       0.00          0          0          0
  locks            :       0.03       0.00          1          0          0
  lpface           :       0.07       0.00          0          0          0
  mpec             :       9.14       0.00          1          0          0
  multistart       :       0.00       0.00          0          0          0
  mutation         :       0.00       0.00          0          0          0
  nlpdiving        :      17.20       0.00          9          0          0
  objpscostdiving  :      23.17       0.00         96          0          0
  octane           :       0.00       0.00          0          0          0
  ofins            :       0.05       0.00          0          0          0
  oneopt           :       0.07       0.00         21          0          0
  padm             :       0.00       0.00          0          0          0
  proximity        :       0.00       0.00          0          0          0
  pscostdiving     :      13.61       0.00        530          0          0
  randrounding     :       0.92       0.00      21520          0          0
  rens             :       0.00       0.00          0          0          0
  reoptsols        :       0.00       0.00          0          0          0
  repair           :       0.00       0.00          0          0          0
  rins             :      29.61       0.00         46         27          5
  rootsoldiving    :       5.52       0.00        104          0          0
  rounding         :       1.32       0.00       8997          0          0
  shiftandpropagate:       0.02       0.00          1          0          0
  shifting         :       2.50       0.00       2867          0          0
  simplerounding   :       0.24       0.00          0          0          0
  subnlp           :      36.23       0.00        238        167          8
  trivial          :       0.01       0.00          2          0          0
  trivialnegation  :       0.00       0.00          0          0          0
  trustregion      :       0.00       0.00          0          0          0
  trysol           :       0.12       0.00          0          0          0
  twoopt           :       0.00       0.00          0          0          0
  undercover       :       0.13       0.00          1          0          0
  vbounds          :       0.00       0.00          0          0          0
  veclendiving     :       4.74       0.00        529          0          0
  zeroobj          :       0.00       0.00          0          0          0
  zirounding       :       0.24       0.00       1000          0          0
  other solutions  :          -          -          -          0          -
Expressions        :   #IntEval  IntEvalTi   #RevProp  RevPropTi    DomReds    Cutoffs  #Estimate  EstimTime  Branching  #Simplify SimplifyTi Simplified
  pow              :    8046448       1.16       1728       0.00          0          0    1488382       0.17          0       2108       0.00          0
  prod             :      14976       0.00          0       0.00          0          0   34874572       1.44          0       4028       0.00       2688
  sum              :      19968       0.01          0       0.00          0          0     413985       0.05          0       6020       0.01       1992
  val              :          0       0.00          0       0.00          0          0          0       0.00          0          0       0.00          0
  var              :    7663142       0.39          0       0.00          0          0          0       0.00          0       8620       0.00        552
  varidx           :          0       0.00          0       0.00          0          0          0       0.00          0          0       0.00          0
Nlhdlrs            :    Detects  DetectAll DetectTime   #IntEval  IntEvalTi   #RevProp  RevPropTi    DomReds    Cutoffs   #Enforce   EnfoTime       Cuts  Branching
  soc              :          0          0       0.00          0       0.00          0       0.00          0          0          0       0.00          0          0
  convex           :          0          0       0.00          0       0.00          0       0.00          0          0          0       0.00          0          0
  concave          :          0          0       0.00          0       0.00          0       0.00          0          0          0       0.00          0          0
  signomial        :        288        288       0.00          0       0.00          0       0.00          0          0   24988806       2.81        296          0
  quotient         :          0          0       0.00          0       0.00          0       0.00          0          0          0       0.00          0          0
  quadratic        :        768      19968       0.03    6288722       5.36    2520628       4.55    1305695          0          0       0.00          0          0
  default          :       2500      32734       0.00    8062178       1.70       7166       0.00          0          0   36776651      30.37    1924513          0
  bilinear         :          0          0       0.00          0       0.00          0       0.00          0          0          0       0.00          0          0
  perspective      :        288        288       0.00          0       0.00          0       0.00        609          0    1479337       2.62     198398          0
LP                 :       Time      Calls Iterations  Iter/call   Iter/sec  Time-0-It Calls-0-It    ItLimit
  primal LP        :    1006.00      93829          1       1.00       0.00    1005.97      93828
  dual LP          :    1446.74     578447    4573649      10.50    3161.34      52.28     142722
  lex dual LP      :       0.00          0          0       0.00          -
  barrier LP       :       0.00          0          0       0.00          -       0.00          0
  resolve instable :       0.00          0          0       0.00          -
  diving/probing LP:      54.17      15144     279049      18.43    5151.39
  strong branching :      12.03       3017      79822      26.46    6634.25          -          -       1468
    (at root node) :          -        182       4430      24.34          -
  conflict analysis:       0.00          0          0       0.00          -
NLP relaxation     :
  solve time       :      17.19 (9 calls)
  convexity        :  nonconvex (1989 linear rows, 288 convex ineq., 480 nonconvex ineq., 0 nonlinear eq. or two-sided ineq.)
NLP Solvers        :  #Problems  ProblemTi    #Solves  SolveTime      #Iter  Time/Iter      #Okay #TimeLimit #IterLimit #LObjLimit #Interrupt  #NumError #EvalError  #OutOfMem #LicenseEr #OtherTerm   #GlobOpt    #LocOpt  #Feasible #LocInfeas #GlobInfea #Unbounded   #Unknown
  ipopt            :        241       1.86        250      48.85       6569       0.01        250          0          0          0          0          0          0          0          0          0          0        240          0          1          0          0          9
B&B Tree           :
  number of runs   :          1
  nodes            :     124307 (99257 internal, 25050 leaves)
  feasible leaves  :          0
  infeas. leaves   :         40
  objective leaves :      25009
  nodes (total)    :     124307 (99257 internal, 25050 leaves)
  nodes left       :      69276
  max depth        :        115
  max depth (total):        115
  backtracks       :      10846 (8.7%)
  early backtracks :          0 (0.0%)
  nodes exc. ref.  :          0 (0.0%)
  delayed cutoffs  :          0
  repropagations   :         69 (839 domain reductions, 0 cutoffs)
  avg switch length:       4.76
  switching time   :    1030.29
Root Node          :
  First LP value   : +2.33337621757202e+02
  First LP Iters   :       1597 (23545.89 Iter/sec)
  First LP Time    :       0.07
  Final Dual Bound : +2.47452262022281e+02
  Final Root Iters :       6642
  Root LP Estimate : +2.51480476283437e+02
Solution           :
  Solutions found  :        230 (21 improvements)
  First Solution   : +3.70033494777400e+02   (in run 1, after 1 nodes, 1.79 seconds, depth 0, found by <feaspump>)
  Gap First Sol.   :      58.58 %
  Gap Last Sol.    :       1.52 %
  Primal Bound     : +2.54354854120115e+02   (in run 1, after 59053 nodes, 1895.09 seconds, depth 36, found by <crossover>)
  Dual Bound       : +2.50817333269255e+02
  Gap              :       1.41 %
Integrals          :      Total       Avg%
  primal-dual      :    6624.57       1.84
  primal-ref       :          -          - (not evaluated)
  dual-ref         :          -          - (not evaluated)
